32      4       
10      10      10      10      
0       0       0       0       0       13      2       3       4       5       6       9       13      14      18      28      29      30      31      
7       1       0       1       1       7       8       10      12      15      16      22      25      
6       5       1       0       5       5       10      11      22      24      25      
10      5       9       0       4       8       19      20      21      22      23      24      25      27      
7       0       2       5       4       3       7       10      23      
1       0       4       3       4       5       17      21      22      23      26      
5       0       2       6       4       3       21      22      24      
9       2       0       5       4       3       19      20      24      
2       3       8       0       5       3       19      20      24      
5       0       3       2       2       2       19      20      
10      4       0       3       6       2       23      26      
7       4       0       6       4       2       19      21      
8       7       2       0       5       2       20      22      
3       1       4       0       3       2       19      21      
3       3       0       4       6       1       23      
10      0       7       5       5       1       21      
6       0       4       3       2       1       19      
6       6       4       1       0       1       20      
8       5       0       4       3       1       32      
1       3       0       8       4       1       32      
8       3       8       4       0       1       32      
6       0       4       4       5       1       32      
5       0       3       4       2       1       32      
3       6       2       0       6       1       32      
2       0       5       5       5       1       32      
1       4       3       0       2       1       32      
10      6       5       3       0       1       32      
9       0       4       5       2       1       32      
8       0       3       3       2       1       32      
1       0       1       6       5       1       32      
1       4       0       2       8       1       32      
0       0       0       0       0       0       
